
Gurobi 6.5.2 (win64) logging started 07/22/16 21:44:41


Gurobi 6.5.2 (win64) logging started 07/22/16 21:44:41

Optimize a model with 683 rows, 155 columns and 1643 nonzeros
Coefficient statistics:
  Matrix range    [1e+00, 4e+02]
  Objective range [2e+00, 4e+02]
  Bounds range    [1e+00, 1e+00]
  RHS range       [1e+00, 2e+03]
Presolve removed 617 rows and 16 columns
Presolve time: 0.00s
Presolved: 66 rows, 139 columns, 513 nonzeros
Variable types: 0 continuous, 139 integer (139 binary)

Root relaxation: objective 1.917000e+03, 53 iterations, 0.00 seconds

    Nodes    |    Current Node    |     Objective Bounds      |     Work
 Expl Unexpl |  Obj  Depth IntInf | Incumbent    BestBd   Gap | It/Node Time

*    0     0               0    1917.0000000 1917.00000  0.00%     -    0s

Explored 0 nodes (53 simplex iterations) in 0.02 seconds
Thread count was 8 (of 8 available processors)

Optimal solution found (tolerance 1.00e-04)
Best objective 1.917000000000e+03, best bound 1.917000000000e+03, gap 0.0%

Wrote requested result file 'H1\instance20\\Results20SG_Sol3.lp'

